data/lp_files/q3/59_2.lp
\ Model foo
\ LP format - for model browsing. Use MPS format to capture full model detail.
Minimize
  z
Subject To
 allocateEach[1]: x[1,1] + x[2,1] + x[3,1] = 1
 allocateEach[2]: x[1,2] + x[2,2] + x[3,2] = 1
 allocateEach[3]: x[1,3] + x[2,3] + x[3,3] = 1
 allocateEach[4]: x[1,4] + x[2,4] + x[3,4] = 1
 allocateEach[5]: x[1,5] + x[2,5] + x[3,5] = 1
 allocateEach[6]: x[1,6] + x[2,6] + x[3,6] = 1
 allocateEach[7]: x[1,7] + x[2,7] + x[3,7] = 1
 allocateEach[8]: x[1,8] + x[2,8] + x[3,8] = 1
 allocateEach[9]: x[1,9] + x[2,9] + x[3,9] = 1
 allocateEach[10]: x[1,10] + x[2,10] + x[3,10] = 1
 allocateEach[11]: x[1,11] + x[2,11] + x[3,11] = 1
 allocateEach[12]: x[1,12] + x[2,12] + x[3,12] = 1
 allocateEach[13]: x[1,13] + x[2,13] + x[3,13] = 1
 allocateEach[14]: x[1,14] + x[2,14] + x[3,14] = 1
 allocateEach[15]: x[1,15] + x[2,15] + x[3,15] = 1
 allocateEach[16]: x[1,16] + x[2,16] + x[3,16] = 1
 allocateEach[17]: x[1,17] + x[2,17] + x[3,17] = 1
 allocateEach[18]: x[1,18] + x[2,18] + x[3,18] = 1
 allocateEach[19]: x[1,19] + x[2,19] + x[3,19] = 1
 allocateAllCash: cashProportion[1] + cashProportion[2] + cashProportion[3]
   = 1
 findWorstP[1,2]: z + 0.0140882109850477 cashProportion[1]
   - 0.0140882109850477 cashProportion[2] + 0.0884176121421594 x[1,1]
   + 0.0913385678863927 x[1,2] + 0.0236588023142235 x[1,3]
   + 0.0615373055826884 x[1,4] + 0.0166804418062965 x[1,5]
   + 0.0853933428507025 x[1,6] + 0.0675200991810053 x[1,7]
   + 0.0748459688932302 x[1,8] + 0.00155909534901195 x[1,9]
   + 0.0739631076715005 x[1,10] + 0.00459275678112555 x[1,11]
   + 0.0843883838004358 x[1,12] + 0.000197235 x[1,13]
   + 0.0321399053272222 x[1,14] + 0.0614715605980915 x[1,15]
   + 0.0284300097678263 x[1,16] + 0.0248422120369675 x[1,17]
   + 0.0886336313772635 x[1,18] + 0.0763017506950184 x[1,19]
   - 0.0884176121421594 x[2,1] - 0.0913385678863927 x[2,2]
   - 0.0236588023142235 x[2,3] - 0.0615373055826884 x[2,4]
   - 0.0166804418062965 x[2,5] - 0.0853933428507025 x[2,6]
   - 0.0675200991810053 x[2,7] - 0.0748459688932302 x[2,8]
   - 0.00155909534901195 x[2,9] - 0.0739631076715005 x[2,10]
   - 0.00459275678112555 x[2,11] - 0.0843883838004358 x[2,12]
   - 0.000197235 x[2,13] - 0.0321399053272222 x[2,14]
   - 0.0614715605980915 x[2,15] - 0.0284300097678263 x[2,16]
   - 0.0248422120369675 x[2,17] - 0.0886336313772635 x[2,18]
   - 0.0763017506950184 x[2,19] >= 0
 findWorstP[1,3]: z + 0.0140882109850477 cashProportion[1]
   - 0.0140882109850477 cashProportion[3] + 0.0884176121421594 x[1,1]
   + 0.0913385678863927 x[1,2] + 0.0236588023142235 x[1,3]
   + 0.0615373055826884 x[1,4] + 0.0166804418062965 x[1,5]
   + 0.0853933428507025 x[1,6] + 0.0675200991810053 x[1,7]
   + 0.0748459688932302 x[1,8] + 0.00155909534901195 x[1,9]
   + 0.0739631076715005 x[1,10] + 0.00459275678112555 x[1,11]
   + 0.0843883838004358 x[1,12] + 0.000197235 x[1,13]
   + 0.0321399053272222 x[1,14] + 0.0614715605980915 x[1,15]
   + 0.0284300097678263 x[1,16] + 0.0248422120369675 x[1,17]
   + 0.0886336313772635 x[1,18] + 0.0763017506950184 x[1,19]
   - 0.0884176121421594 x[3,1] - 0.0913385678863927 x[3,2]
   - 0.0236588023142235 x[3,3] - 0.0615373055826884 x[3,4]
   - 0.0166804418062965 x[3,5] - 0.0853933428507025 x[3,6]
   - 0.0675200991810053 x[3,7] - 0.0748459688932302 x[3,8]
   - 0.00155909534901195 x[3,9] - 0.0739631076715005 x[3,10]
   - 0.00459275678112555 x[3,11] - 0.0843883838004358 x[3,12]
   - 0.000197235 x[3,13] - 0.0321399053272222 x[3,14]
   - 0.0614715605980915 x[3,15] - 0.0284300097678263 x[3,16]
   - 0.0248422120369675 x[3,17] - 0.0886336313772635 x[3,18]
   - 0.0763017506950184 x[3,19] >= 0
 findWorstP[2,1]: z - 0.0206731166790705 cashProportion[1]
   + 0.0206731166790705 cashProportion[2] - 0.00649135863722815 x[1,1]
   - 0.00399680255795364 x[1,2] - 0.1112902781223297 x[1,3]
   - 0.1288210810661815 x[1,4] - 0.0500565065189228 x[1,5]
   - 0.0657267289616583 x[1,6] - 0.0861793323961521 x[1,7]
   - 0.0191846522781775 x[1,8] - 0.1018357727611015 x[1,9]
   - 0.0137958598638331 x[1,10] - 0.0313817911188291 x[1,11]
   - 0.0083519391383445 x[1,12] - 0.0241737644367265 x[1,13]
   - 0.0900107500206731 x[1,14] - 0.0490504148405414 x[1,15]
   - 0.0189227928002426 x[1,16] - 0.0586427409796301 x[1,17]
   - 0.0856004851291381 x[1,18] - 0.0258138316932661 x[1,19]
   + 0.00649135863722815 x[2,1] + 0.00399680255795364 x[2,2]
   + 0.1112902781223297 x[2,3] + 0.1288210810661815 x[2,4]
   + 0.0500565065189228 x[2,5] + 0.0657267289616583 x[2,6]
   + 0.0861793323961521 x[2,7] + 0.0191846522781775 x[2,8]
   + 0.1018357727611015 x[2,9] + 0.0137958598638331 x[2,10]
   + 0.0313817911188291 x[2,11] + 0.0083519391383445 x[2,12]
   + 0.0241737644367265 x[2,13] + 0.0900107500206731 x[2,14]
   + 0.0490504148405414 x[2,15] + 0.0189227928002426 x[2,16]
   + 0.0586427409796301 x[2,17] + 0.0856004851291381 x[2,18]
   + 0.0258138316932661 x[2,19] >= 0
 findWorstP[2,3]: z + 0.0206731166790705 cashProportion[2]
   - 0.0206731166790705 cashProportion[3] + 0.00649135863722815 x[2,1]
   + 0.00399680255795364 x[2,2] + 0.1112902781223297 x[2,3]
   + 0.1288210810661815 x[2,4] + 0.0500565065189228 x[2,5]
   + 0.0657267289616583 x[2,6] + 0.0861793323961521 x[2,7]
   + 0.0191846522781775 x[2,8] + 0.1018357727611015 x[2,9]
   + 0.0137958598638331 x[2,10] + 0.0313817911188291 x[2,11]
   + 0.0083519391383445 x[2,12] + 0.0241737644367265 x[2,13]
   + 0.0900107500206731 x[2,14] + 0.0490504148405414 x[2,15]
   + 0.0189227928002426 x[2,16] + 0.0586427409796301 x[2,17]
   + 0.0856004851291381 x[2,18] + 0.0258138316932661 x[2,19]
   - 0.00649135863722815 x[3,1] - 0.00399680255795364 x[3,2]
   - 0.1112902781223297 x[3,3] - 0.1288210810661815 x[3,4]
   - 0.0500565065189228 x[3,5] - 0.0657267289616583 x[3,6]
   - 0.0861793323961521 x[3,7] - 0.0191846522781775 x[3,8]
   - 0.1018357727611015 x[3,9] - 0.0137958598638331 x[3,10]
   - 0.0313817911188291 x[3,11] - 0.0083519391383445 x[3,12]
   - 0.0241737644367265 x[3,13] - 0.0900107500206731 x[3,14]
   - 0.0490504148405414 x[3,15] - 0.0189227928002426 x[3,16]
   - 0.0586427409796301 x[3,17] - 0.0856004851291381 x[3,18]
   - 0.0258138316932661 x[3,19] >= 0
 findWorstP[3,1]: z - 0.0111854320932418 cashProportion[1]
   + 0.0111854320932418 cashProportion[3] - 0.0302454083801257 x[1,1]
   - 0.0208720162859891 x[1,2] - 0.00485447752846693 x[1,3]
   - 0.0601030551143524 x[1,4] - 0.0529145507557624 x[1,5]
   - 0.0611992274594901 x[1,6] - 0.04885796738328 x[1,7]
   - 0.0561284982438872 x[1,8] - 0.0617883268830675 x[1,9]
   - 0.0399170786634154 x[1,10] - 0.0430266287853366 x[1,11]
   - 0.0656137446589562 x[1,12] - 0.0711766328866618 x[1,13]
   - 0.0697076128050827 x[1,14] - 0.0711766328866618 x[1,15]
   - 0.0709529242447969 x[1,16] - 0.0410654496916549 x[1,17]
   - 0.0692005398835224 x[1,18] - 0.0500137953662483 x[1,19]
   + 0.0302454083801257 x[3,1] + 0.0208720162859891 x[3,2]
   + 0.00485447752846693 x[3,3] + 0.0601030551143524 x[3,4]
   + 0.0529145507557624 x[3,5] + 0.0611992274594901 x[3,6]
   + 0.04885796738328 x[3,7] + 0.0561284982438872 x[3,8]
   + 0.0617883268830675 x[3,9] + 0.0399170786634154 x[3,10]
   + 0.0430266287853366 x[3,11] + 0.0656137446589562 x[3,12]
   + 0.0711766328866618 x[3,13] + 0.0697076128050827 x[3,14]
   + 0.0711766328866618 x[3,15] + 0.0709529242447969 x[3,16]
   + 0.0410654496916549 x[3,17] + 0.0692005398835224 x[3,18]
   + 0.0500137953662483 x[3,19] >= 0
 findWorstP[3,2]: z - 0.0111854320932418 cashProportion[2]
   + 0.0111854320932418 cashProportion[3] - 0.0302454083801257 x[2,1]
   - 0.0208720162859891 x[2,2] - 0.00485447752846693 x[2,3]
   - 0.0601030551143524 x[2,4] - 0.0529145507557624 x[2,5]
   - 0.0611992274594901 x[2,6] - 0.04885796738328 x[2,7]
   - 0.0561284982438872 x[2,8] - 0.0617883268830675 x[2,9]
   - 0.0399170786634154 x[2,10] - 0.0430266287853366 x[2,11]
   - 0.0656137446589562 x[2,12] - 0.0711766328866618 x[2,13]
   - 0.0697076128050827 x[2,14] - 0.0711766328866618 x[2,15]
   - 0.0709529242447969 x[2,16] - 0.0410654496916549 x[2,17]
   - 0.0692005398835224 x[2,18] - 0.0500137953662483 x[2,19]
   + 0.0302454083801257 x[3,1] + 0.0208720162859891 x[3,2]
   + 0.00485447752846693 x[3,3] + 0.0601030551143524 x[3,4]
   + 0.0529145507557624 x[3,5] + 0.0611992274594901 x[3,6]
   + 0.04885796738328 x[3,7] + 0.0561284982438872 x[3,8]
   + 0.0617883268830675 x[3,9] + 0.0399170786634154 x[3,10]
   + 0.0430266287853366 x[3,11] + 0.0656137446589562 x[3,12]
   + 0.0711766328866618 x[3,13] + 0.0697076128050827 x[3,14]
   + 0.0711766328866618 x[3,15] + 0.0709529242447969 x[3,16]
   + 0.0410654496916549 x[3,17] + 0.0692005398835224 x[3,18]
   + 0.0500137953662483 x[3,19] >= 0
Bounds
 z <= 1
 -infinity <= cashProportion[1] <= 1
 -infinity <= cashProportion[2] <= 1
 -infinity <= cashProportion[3] <= 1
Binaries
 x[1,1] x[1,2] x[1,3] x[1,4] x[1,5] x[1,6] x[1,7] x[1,8] x[1,9] x[1,10]
 x[1,11] x[1,12] x[1,13] x[1,14] x[1,15] x[1,16] x[1,17] x[1,18] x[1,19]
 x[2,1] x[2,2] x[2,3] x[2,4] x[2,5] x[2,6] x[2,7] x[2,8] x[2,9] x[2,10]
 x[2,11] x[2,12] x[2,13] x[2,14] x[2,15] x[2,16] x[2,17] x[2,18] x[2,19]
 x[3,1] x[3,2] x[3,3] x[3,4] x[3,5] x[3,6] x[3,7] x[3,8] x[3,9] x[3,10]
 x[3,11] x[3,12] x[3,13] x[3,14] x[3,15] x[3,16] x[3,17] x[3,18] x[3,19]
End
