data/mps_files/pEFS/59_2.mps
NAME foo
ROWS
 N  OBJ
 E  allocateEach[1]
 E  allocateEach[2]
 E  allocateEach[3]
 E  allocateEach[4]
 E  allocateEach[5]
 E  allocateEach[6]
 E  allocateEach[7]
 E  allocateEach[8]
 E  allocateEach[9]
 E  allocateEach[10]
 E  allocateEach[11]
 E  allocateEach[12]
 E  allocateEach[13]
 E  allocateEach[14]
 E  allocateEach[15]
 E  allocateEach[16]
 E  allocateEach[17]
 E  allocateEach[18]
 E  allocateEach[19]
 E  allocateAllCash
 G  findWorstP[1,2]
 G  findWorstP[1,3]
 G  findWorstP[2,1]
 G  findWorstP[2,3]
 G  findWorstP[3,1]
 G  findWorstP[3,2]
COLUMNS
    z         OBJ       1
    z         findWorstP[1,2]  1
    z         findWorstP[1,3]  1
    z         findWorstP[2,1]  1
    z         findWorstP[2,3]  1
    z         findWorstP[3,1]  1
    z         findWorstP[3,2]  1
    cashProportion[1]  allocateAllCash  1
    cashProportion[1]  findWorstP[1,2]  1.4088210985047714e-02
    cashProportion[1]  findWorstP[1,3]  1.4088210985047714e-02
    cashProportion[1]  findWorstP[2,1]  -2.0673116679070541e-02
    cashProportion[1]  findWorstP[3,1]  -1.1185432093241765e-02
    cashProportion[2]  allocateAllCash  1
    cashProportion[2]  findWorstP[1,2]  -1.4088210985047714e-02
    cashProportion[2]  findWorstP[2,1]  2.0673116679070541e-02
    cashProportion[2]  findWorstP[2,3]  2.0673116679070541e-02
    cashProportion[2]  findWorstP[3,2]  -1.1185432093241765e-02
    cashProportion[3]  allocateAllCash  1
    cashProportion[3]  findWorstP[1,3]  -1.4088210985047714e-02
    cashProportion[3]  findWorstP[2,3]  -2.0673116679070541e-02
    cashProportion[3]  findWorstP[3,1]  1.1185432093241765e-02
    cashProportion[3]  findWorstP[3,2]  1.1185432093241765e-02
    MARKER    'MARKER'                 'INTORG'
    x[1,1]    allocateEach[1]  1
    x[1,1]    findWorstP[1,2]  8.8417612142159444e-02
    x[1,1]    findWorstP[1,3]  8.8417612142159444e-02
    x[1,1]    findWorstP[2,1]  -0.00649135863722815
    x[1,1]    findWorstP[3,1]  -3.0245408380125731e-02
    x[1,2]    allocateEach[2]  1
    x[1,2]    findWorstP[1,2]  9.1338567886392677e-02
    x[1,2]    findWorstP[1,3]  9.1338567886392677e-02
    x[1,2]    findWorstP[2,1]  -3.9968025579536380e-03
    x[1,2]    findWorstP[3,1]  -2.0872016285989132e-02
    x[1,3]    allocateEach[3]  1
    x[1,3]    findWorstP[1,2]  2.3658802314223459e-02
    x[1,3]    findWorstP[1,3]  2.3658802314223459e-02
    x[1,3]    findWorstP[2,1]  -1.1129027812232974e-01
    x[1,3]    findWorstP[3,1]  -4.8544775284669259e-03
    x[1,4]    allocateEach[4]  1
    x[1,4]    findWorstP[1,2]  6.1537305582688412e-02
    x[1,4]    findWorstP[1,3]  6.1537305582688412e-02
    x[1,4]    findWorstP[2,1]  -1.2882108106618154e-01
    x[1,4]    findWorstP[3,1]  -6.0103055114352419e-02
    x[1,5]    allocateEach[5]  1
    x[1,5]    findWorstP[1,2]  1.6680441806296492e-02
    x[1,5]    findWorstP[1,3]  1.6680441806296492e-02
    x[1,5]    findWorstP[2,1]  -0.0500565065189228
    x[1,5]    findWorstP[3,1]  -5.2914550755762374e-02
    x[1,6]    allocateEach[6]  1
    x[1,6]    findWorstP[1,2]  8.5393342850702533e-02
    x[1,6]    findWorstP[1,3]  8.5393342850702533e-02
    x[1,6]    findWorstP[2,1]  -6.5726728961658265e-02
    x[1,6]    findWorstP[3,1]  -6.1199227459490108e-02
    x[1,7]    allocateEach[7]  1
    x[1,7]    findWorstP[1,2]  6.7520099181005336e-02
    x[1,7]    findWorstP[1,3]  6.7520099181005336e-02
    x[1,7]    findWorstP[2,1]  -8.6179332396152053e-02
    x[1,7]    findWorstP[3,1]  -4.8857967383280028e-02
    x[1,8]    allocateEach[8]  1
    x[1,8]    findWorstP[1,2]  7.4845968893230155e-02
    x[1,8]    findWorstP[1,3]  7.4845968893230155e-02
    x[1,8]    findWorstP[2,1]  -1.9184652278177457e-02
    x[1,8]    findWorstP[3,1]  -5.6128498243887173e-02
    x[1,9]    allocateEach[9]  1
    x[1,9]    findWorstP[1,2]  1.5590953490119469e-03
    x[1,9]    findWorstP[1,3]  1.5590953490119469e-03
    x[1,9]    findWorstP[2,1]  -1.0183577276110148e-01
    x[1,9]    findWorstP[3,1]  -6.1788326883067506e-02
    x[1,10]   allocateEach[10]  1
    x[1,10]   findWorstP[1,2]  0.0739631076715005
    x[1,10]   findWorstP[1,3]  0.0739631076715005
    x[1,10]   findWorstP[2,1]  -1.3795859863833072e-02
    x[1,10]   findWorstP[3,1]  -3.9917078663415442e-02
    x[1,11]   allocateEach[11]  1
    x[1,11]   findWorstP[1,2]  4.5927567811255539e-03
    x[1,11]   findWorstP[1,3]  4.5927567811255539e-03
    x[1,11]   findWorstP[2,1]  -3.1381791118829078e-02
    x[1,11]   findWorstP[3,1]  -4.3026628785336647e-02
    x[1,12]   allocateEach[12]  1
    x[1,12]   findWorstP[1,2]  0.0843883838004358
    x[1,12]   findWorstP[1,3]  0.0843883838004358
    x[1,12]   findWorstP[2,1]  -8.3519391383444982e-03
    x[1,12]   findWorstP[3,1]  -0.0656137446589562
    x[1,13]   allocateEach[13]  1
    x[1,13]   findWorstP[1,2]  1.9723495379066796e-04
    x[1,13]   findWorstP[1,3]  1.9723495379066796e-04
    x[1,13]   findWorstP[2,1]  -2.4173764436726482e-02
    x[1,13]   findWorstP[3,1]  -7.1176632886661761e-02
    x[1,14]   allocateEach[14]  1
    x[1,14]   findWorstP[1,2]  3.2139905327222183e-02
    x[1,14]   findWorstP[1,3]  3.2139905327222183e-02
    x[1,14]   findWorstP[2,1]  -9.0010750020673130e-02
    x[1,14]   findWorstP[3,1]  -6.9707612805082669e-02
    x[1,15]   allocateEach[15]  1
    x[1,15]   findWorstP[1,2]  6.1471560598091515e-02
    x[1,15]   findWorstP[1,3]  6.1471560598091515e-02
    x[1,15]   findWorstP[2,1]  -4.9050414840541366e-02
    x[1,15]   findWorstP[3,1]  -7.1176632886661761e-02
    x[1,16]   allocateEach[16]  1
    x[1,16]   findWorstP[1,2]  2.8430009767826284e-02
    x[1,16]   findWorstP[1,3]  2.8430009767826284e-02
    x[1,16]   findWorstP[2,1]  -1.8922792800242567e-02
    x[1,16]   findWorstP[3,1]  -7.0952924244796919e-02
    x[1,17]   allocateEach[17]  1
    x[1,17]   findWorstP[1,2]  2.4842212036967466e-02
    x[1,17]   findWorstP[1,3]  2.4842212036967466e-02
    x[1,17]   findWorstP[2,1]  -5.8642740979630091e-02
    x[1,17]   findWorstP[3,1]  -4.1065449691654932e-02
    x[1,18]   allocateEach[18]  1
    x[1,18]   findWorstP[1,2]  0.0886336313772635
    x[1,18]   findWorstP[1,3]  0.0886336313772635
    x[1,18]   findWorstP[2,1]  -8.5600485129138079e-02
    x[1,18]   findWorstP[3,1]  -6.9200539883522386e-02
    x[1,19]   allocateEach[19]  1
    x[1,19]   findWorstP[1,2]  0.0763017506950184
    x[1,19]   findWorstP[1,3]  0.0763017506950184
    x[1,19]   findWorstP[2,1]  -2.5813831693266079e-02
    x[1,19]   findWorstP[3,1]  -5.0013795366248337e-02
    x[2,1]    allocateEach[1]  1
    x[2,1]    findWorstP[1,2]  -8.8417612142159444e-02
    x[2,1]    findWorstP[2,1]  0.00649135863722815
    x[2,1]    findWorstP[2,3]  0.00649135863722815
    x[2,1]    findWorstP[3,2]  -3.0245408380125731e-02
    x[2,2]    allocateEach[2]  1
    x[2,2]    findWorstP[1,2]  -9.1338567886392677e-02
    x[2,2]    findWorstP[2,1]  3.9968025579536380e-03
    x[2,2]    findWorstP[2,3]  3.9968025579536380e-03
    x[2,2]    findWorstP[3,2]  -2.0872016285989132e-02
    x[2,3]    allocateEach[3]  1
    x[2,3]    findWorstP[1,2]  -2.3658802314223459e-02
    x[2,3]    findWorstP[2,1]  1.1129027812232974e-01
    x[2,3]    findWorstP[2,3]  1.1129027812232974e-01
    x[2,3]    findWorstP[3,2]  -4.8544775284669259e-03
    x[2,4]    allocateEach[4]  1
    x[2,4]    findWorstP[1,2]  -6.1537305582688412e-02
    x[2,4]    findWorstP[2,1]  1.2882108106618154e-01
    x[2,4]    findWorstP[2,3]  1.2882108106618154e-01
    x[2,4]    findWorstP[3,2]  -6.0103055114352419e-02
    x[2,5]    allocateEach[5]  1
    x[2,5]    findWorstP[1,2]  -1.6680441806296492e-02
    x[2,5]    findWorstP[2,1]  0.0500565065189228
    x[2,5]    findWorstP[2,3]  0.0500565065189228
    x[2,5]    findWorstP[3,2]  -5.2914550755762374e-02
    x[2,6]    allocateEach[6]  1
    x[2,6]    findWorstP[1,2]  -8.5393342850702533e-02
    x[2,6]    findWorstP[2,1]  6.5726728961658265e-02
    x[2,6]    findWorstP[2,3]  6.5726728961658265e-02
    x[2,6]    findWorstP[3,2]  -6.1199227459490108e-02
    x[2,7]    allocateEach[7]  1
    x[2,7]    findWorstP[1,2]  -6.7520099181005336e-02
    x[2,7]    findWorstP[2,1]  8.6179332396152053e-02
    x[2,7]    findWorstP[2,3]  8.6179332396152053e-02
    x[2,7]    findWorstP[3,2]  -4.8857967383280028e-02
    x[2,8]    allocateEach[8]  1
    x[2,8]    findWorstP[1,2]  -7.4845968893230155e-02
    x[2,8]    findWorstP[2,1]  1.9184652278177457e-02
    x[2,8]    findWorstP[2,3]  1.9184652278177457e-02
    x[2,8]    findWorstP[3,2]  -5.6128498243887173e-02
    x[2,9]    allocateEach[9]  1
    x[2,9]    findWorstP[1,2]  -1.5590953490119469e-03
    x[2,9]    findWorstP[2,1]  1.0183577276110148e-01
    x[2,9]    findWorstP[2,3]  1.0183577276110148e-01
    x[2,9]    findWorstP[3,2]  -6.1788326883067506e-02
    x[2,10]   allocateEach[10]  1
    x[2,10]   findWorstP[1,2]  -0.0739631076715005
    x[2,10]   findWorstP[2,1]  1.3795859863833072e-02
    x[2,10]   findWorstP[2,3]  1.3795859863833072e-02
    x[2,10]   findWorstP[3,2]  -3.9917078663415442e-02
    x[2,11]   allocateEach[11]  1
    x[2,11]   findWorstP[1,2]  -4.5927567811255539e-03
    x[2,11]   findWorstP[2,1]  3.1381791118829078e-02
    x[2,11]   findWorstP[2,3]  3.1381791118829078e-02
    x[2,11]   findWorstP[3,2]  -4.3026628785336647e-02
    x[2,12]   allocateEach[12]  1
    x[2,12]   findWorstP[1,2]  -0.0843883838004358
    x[2,12]   findWorstP[2,1]  8.3519391383444982e-03
    x[2,12]   findWorstP[2,3]  8.3519391383444982e-03
    x[2,12]   findWorstP[3,2]  -0.0656137446589562
    x[2,13]   allocateEach[13]  1
    x[2,13]   findWorstP[1,2]  -1.9723495379066796e-04
    x[2,13]   findWorstP[2,1]  2.4173764436726482e-02
    x[2,13]   findWorstP[2,3]  2.4173764436726482e-02
    x[2,13]   findWorstP[3,2]  -7.1176632886661761e-02
    x[2,14]   allocateEach[14]  1
    x[2,14]   findWorstP[1,2]  -3.2139905327222183e-02
    x[2,14]   findWorstP[2,1]  9.0010750020673130e-02
    x[2,14]   findWorstP[2,3]  9.0010750020673130e-02
    x[2,14]   findWorstP[3,2]  -6.9707612805082669e-02
    x[2,15]   allocateEach[15]  1
    x[2,15]   findWorstP[1,2]  -6.1471560598091515e-02
    x[2,15]   findWorstP[2,1]  4.9050414840541366e-02
    x[2,15]   findWorstP[2,3]  4.9050414840541366e-02
    x[2,15]   findWorstP[3,2]  -7.1176632886661761e-02
    x[2,16]   allocateEach[16]  1
    x[2,16]   findWorstP[1,2]  -2.8430009767826284e-02
    x[2,16]   findWorstP[2,1]  1.8922792800242567e-02
    x[2,16]   findWorstP[2,3]  1.8922792800242567e-02
    x[2,16]   findWorstP[3,2]  -7.0952924244796919e-02
    x[2,17]   allocateEach[17]  1
    x[2,17]   findWorstP[1,2]  -2.4842212036967466e-02
    x[2,17]   findWorstP[2,1]  5.8642740979630091e-02
    x[2,17]   findWorstP[2,3]  5.8642740979630091e-02
    x[2,17]   findWorstP[3,2]  -4.1065449691654932e-02
    x[2,18]   allocateEach[18]  1
    x[2,18]   findWorstP[1,2]  -0.0886336313772635
    x[2,18]   findWorstP[2,1]  8.5600485129138079e-02
    x[2,18]   findWorstP[2,3]  8.5600485129138079e-02
    x[2,18]   findWorstP[3,2]  -6.9200539883522386e-02
    x[2,19]   allocateEach[19]  1
    x[2,19]   findWorstP[1,2]  -0.0763017506950184
    x[2,19]   findWorstP[2,1]  2.5813831693266079e-02
    x[2,19]   findWorstP[2,3]  2.5813831693266079e-02
    x[2,19]   findWorstP[3,2]  -5.0013795366248337e-02
    x[3,1]    allocateEach[1]  1
    x[3,1]    findWorstP[1,3]  -8.8417612142159444e-02
    x[3,1]    findWorstP[2,3]  -0.00649135863722815
    x[3,1]    findWorstP[3,1]  3.0245408380125731e-02
    x[3,1]    findWorstP[3,2]  3.0245408380125731e-02
    x[3,2]    allocateEach[2]  1
    x[3,2]    findWorstP[1,3]  -9.1338567886392677e-02
    x[3,2]    findWorstP[2,3]  -3.9968025579536380e-03
    x[3,2]    findWorstP[3,1]  2.0872016285989132e-02
    x[3,2]    findWorstP[3,2]  2.0872016285989132e-02
    x[3,3]    allocateEach[3]  1
    x[3,3]    findWorstP[1,3]  -2.3658802314223459e-02
    x[3,3]    findWorstP[2,3]  -1.1129027812232974e-01
    x[3,3]    findWorstP[3,1]  4.8544775284669259e-03
    x[3,3]    findWorstP[3,2]  4.8544775284669259e-03
    x[3,4]    allocateEach[4]  1
    x[3,4]    findWorstP[1,3]  -6.1537305582688412e-02
    x[3,4]    findWorstP[2,3]  -1.2882108106618154e-01
    x[3,4]    findWorstP[3,1]  6.0103055114352419e-02
    x[3,4]    findWorstP[3,2]  6.0103055114352419e-02
    x[3,5]    allocateEach[5]  1
    x[3,5]    findWorstP[1,3]  -1.6680441806296492e-02
    x[3,5]    findWorstP[2,3]  -0.0500565065189228
    x[3,5]    findWorstP[3,1]  5.2914550755762374e-02
    x[3,5]    findWorstP[3,2]  5.2914550755762374e-02
    x[3,6]    allocateEach[6]  1
    x[3,6]    findWorstP[1,3]  -8.5393342850702533e-02
    x[3,6]    findWorstP[2,3]  -6.5726728961658265e-02
    x[3,6]    findWorstP[3,1]  6.1199227459490108e-02
    x[3,6]    findWorstP[3,2]  6.1199227459490108e-02
    x[3,7]    allocateEach[7]  1
    x[3,7]    findWorstP[1,3]  -6.7520099181005336e-02
    x[3,7]    findWorstP[2,3]  -8.6179332396152053e-02
    x[3,7]    findWorstP[3,1]  4.8857967383280028e-02
    x[3,7]    findWorstP[3,2]  4.8857967383280028e-02
    x[3,8]    allocateEach[8]  1
    x[3,8]    findWorstP[1,3]  -7.4845968893230155e-02
    x[3,8]    findWorstP[2,3]  -1.9184652278177457e-02
    x[3,8]    findWorstP[3,1]  5.6128498243887173e-02
    x[3,8]    findWorstP[3,2]  5.6128498243887173e-02
    x[3,9]    allocateEach[9]  1
    x[3,9]    findWorstP[1,3]  -1.5590953490119469e-03
    x[3,9]    findWorstP[2,3]  -1.0183577276110148e-01
    x[3,9]    findWorstP[3,1]  6.1788326883067506e-02
    x[3,9]    findWorstP[3,2]  6.1788326883067506e-02
    x[3,10]   allocateEach[10]  1
    x[3,10]   findWorstP[1,3]  -0.0739631076715005
    x[3,10]   findWorstP[2,3]  -1.3795859863833072e-02
    x[3,10]   findWorstP[3,1]  3.9917078663415442e-02
    x[3,10]   findWorstP[3,2]  3.9917078663415442e-02
    x[3,11]   allocateEach[11]  1
    x[3,11]   findWorstP[1,3]  -4.5927567811255539e-03
    x[3,11]   findWorstP[2,3]  -3.1381791118829078e-02
    x[3,11]   findWorstP[3,1]  4.3026628785336647e-02
    x[3,11]   findWorstP[3,2]  4.3026628785336647e-02
    x[3,12]   allocateEach[12]  1
    x[3,12]   findWorstP[1,3]  -0.0843883838004358
    x[3,12]   findWorstP[2,3]  -8.3519391383444982e-03
    x[3,12]   findWorstP[3,1]  0.0656137446589562
    x[3,12]   findWorstP[3,2]  0.0656137446589562
    x[3,13]   allocateEach[13]  1
    x[3,13]   findWorstP[1,3]  -1.9723495379066796e-04
    x[3,13]   findWorstP[2,3]  -2.4173764436726482e-02
    x[3,13]   findWorstP[3,1]  7.1176632886661761e-02
    x[3,13]   findWorstP[3,2]  7.1176632886661761e-02
    x[3,14]   allocateEach[14]  1
    x[3,14]   findWorstP[1,3]  -3.2139905327222183e-02
    x[3,14]   findWorstP[2,3]  -9.0010750020673130e-02
    x[3,14]   findWorstP[3,1]  6.9707612805082669e-02
    x[3,14]   findWorstP[3,2]  6.9707612805082669e-02
    x[3,15]   allocateEach[15]  1
    x[3,15]   findWorstP[1,3]  -6.1471560598091515e-02
    x[3,15]   findWorstP[2,3]  -4.9050414840541366e-02
    x[3,15]   findWorstP[3,1]  7.1176632886661761e-02
    x[3,15]   findWorstP[3,2]  7.1176632886661761e-02
    x[3,16]   allocateEach[16]  1
    x[3,16]   findWorstP[1,3]  -2.8430009767826284e-02
    x[3,16]   findWorstP[2,3]  -1.8922792800242567e-02
    x[3,16]   findWorstP[3,1]  7.0952924244796919e-02
    x[3,16]   findWorstP[3,2]  7.0952924244796919e-02
    x[3,17]   allocateEach[17]  1
    x[3,17]   findWorstP[1,3]  -2.4842212036967466e-02
    x[3,17]   findWorstP[2,3]  -5.8642740979630091e-02
    x[3,17]   findWorstP[3,1]  4.1065449691654932e-02
    x[3,17]   findWorstP[3,2]  4.1065449691654932e-02
    x[3,18]   allocateEach[18]  1
    x[3,18]   findWorstP[1,3]  -0.0886336313772635
    x[3,18]   findWorstP[2,3]  -8.5600485129138079e-02
    x[3,18]   findWorstP[3,1]  6.9200539883522386e-02
    x[3,18]   findWorstP[3,2]  6.9200539883522386e-02
    x[3,19]   allocateEach[19]  1
    x[3,19]   findWorstP[1,3]  -0.0763017506950184
    x[3,19]   findWorstP[2,3]  -2.5813831693266079e-02
    x[3,19]   findWorstP[3,1]  5.0013795366248337e-02
    x[3,19]   findWorstP[3,2]  5.0013795366248337e-02
    MARKER    'MARKER'                 'INTEND'
RHS
    RHS1      allocateEach[1]  1
    RHS1      allocateEach[2]  1
    RHS1      allocateEach[3]  1
    RHS1      allocateEach[4]  1
    RHS1      allocateEach[5]  1
    RHS1      allocateEach[6]  1
    RHS1      allocateEach[7]  1
    RHS1      allocateEach[8]  1
    RHS1      allocateEach[9]  1
    RHS1      allocateEach[10]  1
    RHS1      allocateEach[11]  1
    RHS1      allocateEach[12]  1
    RHS1      allocateEach[13]  1
    RHS1      allocateEach[14]  1
    RHS1      allocateEach[15]  1
    RHS1      allocateEach[16]  1
    RHS1      allocateEach[17]  1
    RHS1      allocateEach[18]  1
    RHS1      allocateEach[19]  1
    RHS1      allocateAllCash  1
BOUNDS
 UP BND1      z         1
 MI BND1      cashProportion[1]
 UP BND1      cashProportion[1]  1
 MI BND1      cashProportion[2]
 UP BND1      cashProportion[2]  1
 MI BND1      cashProportion[3]
 UP BND1      cashProportion[3]  1
 BV BND1      x[1,1]  
 BV BND1      x[1,2]  
 BV BND1      x[1,3]  
 BV BND1      x[1,4]  
 BV BND1      x[1,5]  
 BV BND1      x[1,6]  
 BV BND1      x[1,7]  
 BV BND1      x[1,8]  
 BV BND1      x[1,9]  
 BV BND1      x[1,10] 
 BV BND1      x[1,11] 
 BV BND1      x[1,12] 
 BV BND1      x[1,13] 
 BV BND1      x[1,14] 
 BV BND1      x[1,15] 
 BV BND1      x[1,16] 
 BV BND1      x[1,17] 
 BV BND1      x[1,18] 
 BV BND1      x[1,19] 
 BV BND1      x[2,1]  
 BV BND1      x[2,2]  
 BV BND1      x[2,3]  
 BV BND1      x[2,4]  
 BV BND1      x[2,5]  
 BV BND1      x[2,6]  
 BV BND1      x[2,7]  
 BV BND1      x[2,8]  
 BV BND1      x[2,9]  
 BV BND1      x[2,10] 
 BV BND1      x[2,11] 
 BV BND1      x[2,12] 
 BV BND1      x[2,13] 
 BV BND1      x[2,14] 
 BV BND1      x[2,15] 
 BV BND1      x[2,16] 
 BV BND1      x[2,17] 
 BV BND1      x[2,18] 
 BV BND1      x[2,19] 
 BV BND1      x[3,1]  
 BV BND1      x[3,2]  
 BV BND1      x[3,3]  
 BV BND1      x[3,4]  
 BV BND1      x[3,5]  
 BV BND1      x[3,6]  
 BV BND1      x[3,7]  
 BV BND1      x[3,8]  
 BV BND1      x[3,9]  
 BV BND1      x[3,10] 
 BV BND1      x[3,11] 
 BV BND1      x[3,12] 
 BV BND1      x[3,13] 
 BV BND1      x[3,14] 
 BV BND1      x[3,15] 
 BV BND1      x[3,16] 
 BV BND1      x[3,17] 
 BV BND1      x[3,18] 
 BV BND1      x[3,19] 
ENDATA
